(set-logic QF_S)
(declare-fun var0 () String)
(declare-fun var1 () String)
(declare-fun var2 () String)
(declare-fun var3 () Int)
(declare-fun var4 () String)
(declare-fun var5 () Int)
(declare-fun var6 () Int)
(assert (> (str.len var0) (str.to.int "5fX0qpay}")))
(assert (> (str.indexof var1 var2 var3) (str.len (str.replace var4 var0 var1))))
(assert (str.prefixof (str.at (str.at var0 var5) (str.indexof var2 var1 var6)) (str.replace (str.replace var2 var4 var1) (str.replace var0 var2 var1) (str.replace var4 var0 var2))))
(assert (str.in.re var4 re.allchar))
(check-sat)